c An instance of conditional planning (by rintanen@informatik.uni-ulm.de)
p cnf 399 1491
e 276 277 278 279 280 281 282 283 284 285 286 287 288 289 290 291 292 293 294 295 296 297 298 299 300 301 302 303 304 305 306 307 308 309 310 311 312 313 314 315 316 317 318 319 320 321 322 323 324 325 326 327 328 329 330 331 332 333 334 335 336 337 338 339 340 341 342 343 344 345 346 347 348 349 350 351 352 353 354 355 356 357 358 359 360 361 362 363 364 365 366 367 368 369 370 371 372 373 374 375 376 377 378 379 0
a 382 381 383 0
e 1 2 3 4 5 6 7 8 9 10 11 12 13 14 15 16 17 18 19 20 21 22 23 24 25 26 27 28 29 30 31 32 33 34 35 36 37 38 39 40 41 42 43 44 45 46 47 48 49 50 51 52 53 54 55 56 57 58 59 60 61 62 63 64 65 66 67 68 69 70 71 72 73 74 75 76 77 78 79 80 81 82 83 84 85 86 87 88 89 90 91 92 93 94 95 96 97 98 99 100 101 102 103 104 105 106 107 108 109 110 111 112 113 114 115 116 117 118 119 120 121 122 123 124 125 126 127 128 129 130 131 132 133 134 135 136 137 138 139 140 141 142 143 144 145 146 147 148 149 150 151 152 153 154 155 156 157 158 159 160 161 162 163 164 165 166 167 168 169 170 171 172 173 174 175 176 177 178 179 180 181 182 183 184 185 186 187 188 189 190 191 192 193 194 195 196 197 198 199 200 201 202 203 204 205 206 207 208 209 210 211 212 213 214 215 216 217 218 219 220 221 222 223 224 225 226 227 228 229 230 231 232 233 234 235 236 237 238 239 240 241 242 243 244 245 246 247 248 249 250 251 252 253 254 255 256 257 258 259 260 261 262 263 264 265 266 267 268 269 270 271 272 273 274 275 380 384 385 386 387 388 389 390 391 392 393 394 395 396 397 398 399 0
-382 -383 -384 381 0
-382 -383 -385 381 0
-382 -383 -386 381 0
-382 -383 -387 381 0
-382 -383 381 388 0
-382 -383 -389 381 0
-382 -383 -390 381 0
-382 -384 381 383 0
-382 -385 381 383 0
-382 -386 381 383 0
-382 381 383 387 0
-382 -388 381 383 0
-382 -389 381 383 0
-382 -390 381 383 0
-381 -383 -384 382 0
-381 -383 -385 382 0
-381 -383 382 386 0
-381 -383 -387 382 0
-381 -383 -388 382 0
-381 -383 -389 382 0
-381 -383 -390 382 0
-381 -384 382 383 0
-381 382 383 385 0
-381 -386 382 383 0
-381 -387 382 383 0
-381 -388 382 383 0
-381 -389 382 383 0
-381 -390 382 383 0
-383 381 382 384 0
-383 -385 381 382 0
-383 -386 381 382 0
-383 -387 381 382 0
-383 -388 381 382 0
-383 -389 381 382 0
-383 -390 381 382 0
-384 381 382 383 0
-385 381 382 383 0
-386 381 382 383 0
-387 381 382 383 0
-388 381 382 383 0
-389 381 382 383 0
381 382 383 390 0
-381 -382 -384 383 0
-381 -382 -385 383 0
-381 -382 -386 383 0
-381 -382 -387 383 0
-381 -382 -388 383 0
-381 -382 383 389 0
-381 -382 -390 383 0
-391 0
-392 0
-393 0
-394 0
-395 0
-396 0
-397 0
-398 0
399 0
-276 -391 0
-276 -392 0
-120 -277 0
-108 -277 0
-121 -278 0
-109 -278 0
-122 -279 0
-110 -279 0
-123 -280 0
-111 -280 0
-124 -281 0
-112 -281 0
-125 -282 0
-113 -282 0
-126 -283 0
-114 -283 0
-127 -284 0
-115 -284 0
-128 -285 0
-116 -285 0
-129 -286 0
-117 -286 0
-130 -287 0
-118 -287 0
-289 -393 0
-289 -391 0
-144 -290 0
-120 -290 0
-145 -291 0
-121 -291 0
-146 -292 0
-122 -292 0
-147 -293 0
-123 -293 0
-148 -294 0
-124 -294 0
-149 -295 0
-125 -295 0
-150 -296 0
-126 -296 0
-151 -297 0
-127 -297 0
-152 -298 0
-128 -298 0
-153 -299 0
-129 -299 0
-154 -300 0
-130 -300 0
-302 -394 0
-302 -391 0
-168 -303 0
-120 -303 0
-169 -304 0
-121 -304 0
-170 -305 0
-122 -305 0
-171 -306 0
-123 -306 0
-172 -307 0
-124 -307 0
-173 -308 0
-125 -308 0
-174 -309 0
-126 -309 0
-175 -310 0
-127 -310 0
-176 -311 0
-128 -311 0
-177 -312 0
-129 -312 0
-178 -313 0
-130 -313 0
-315 -395 0
-315 -391 0
-192 -316 0
-120 -316 0
-193 -317 0
-121 -317 0
-194 -318 0
-122 -318 0
-195 -319 0
-123 -319 0
-196 -320 0
-124 -320 0
-197 -321 0
-125 -321 0
-198 -322 0
-126 -322 0
-199 -323 0
-127 -323 0
-200 -324 0
-128 -324 0
-201 -325 0
-129 -325 0
-202 -326 0
-130 -326 0
-328 -396 0
-328 -391 0
-216 -329 0
-120 -329 0
-217 -330 0
-121 -330 0
-218 -331 0
-122 -331 0
-219 -332 0
-123 -332 0
-220 -333 0
-124 -333 0
-221 -334 0
-125 -334 0
-222 -335 0
-126 -335 0
-223 -336 0
-127 -336 0
-224 -337 0
-128 -337 0
-225 -338 0
-129 -338 0
-226 -339 0
-130 -339 0
-341 -397 0
-341 -391 0
-240 -342 0
-120 -342 0
-241 -343 0
-121 -343 0
-242 -344 0
-122 -344 0
-243 -345 0
-123 -345 0
-244 -346 0
-124 -346 0
-245 -347 0
-125 -347 0
-246 -348 0
-126 -348 0
-247 -349 0
-127 -349 0
-248 -350 0
-128 -350 0
-249 -351 0
-129 -351 0
-250 -352 0
-130 -352 0
-354 -398 0
-354 -391 0
-264 -356 0
-120 -356 0
-265 -358 0
-121 -358 0
-266 -360 0
-122 -360 0
-267 -362 0
-123 -362 0
-268 -364 0
-124 -364 0
-269 -366 0
-125 -366 0
-270 -368 0
-126 -368 0
-271 -370 0
-127 -370 0
-272 -372 0
-128 -372 0
-273 -374 0
-129 -374 0
-274 -376 0
-130 -376 0
-276 120 0
-276 108 0
-277 121 0
-277 109 0
-278 122 0
-278 110 0
-279 123 0
-279 111 0
-280 124 0
-280 112 0
-281 125 0
-281 113 0
-282 126 0
-282 114 0
-283 127 0
-283 115 0
-284 128 0
-284 116 0
-285 129 0
-285 117 0
-286 130 0
-286 118 0
-287 131 0
-287 119 0
-289 144 0
-289 120 0
-290 145 0
-290 121 0
-291 146 0
-291 122 0
-292 147 0
-292 123 0
-293 148 0
-293 124 0
-294 149 0
-294 125 0
-295 150 0
-295 126 0
-296 151 0
-296 127 0
-297 152 0
-297 128 0
-298 153 0
-298 129 0
-299 154 0
-299 130 0
-300 155 0
-300 131 0
-302 168 0
-302 120 0
-303 169 0
-303 121 0
-304 170 0
-304 122 0
-305 171 0
-305 123 0
-306 172 0
-306 124 0
-307 173 0
-307 125 0
-308 174 0
-308 126 0
-309 175 0
-309 127 0
-310 176 0
-310 128 0
-311 177 0
-311 129 0
-312 178 0
-312 130 0
-313 179 0
-313 131 0
-315 192 0
-315 120 0
-316 193 0
-316 121 0
-317 194 0
-317 122 0
-318 195 0
-318 123 0
-319 196 0
-319 124 0
-320 197 0
-320 125 0
-321 198 0
-321 126 0
-322 199 0
-322 127 0
-323 200 0
-323 128 0
-324 201 0
-324 129 0
-325 202 0
-325 130 0
-326 203 0
-326 131 0
-328 216 0
-328 120 0
-329 217 0
-329 121 0
-330 218 0
-330 122 0
-331 219 0
-331 123 0
-332 220 0
-332 124 0
-333 221 0
-333 125 0
-334 222 0
-334 126 0
-335 223 0
-335 127 0
-336 224 0
-336 128 0
-337 225 0
-337 129 0
-338 226 0
-338 130 0
-339 227 0
-339 131 0
-341 240 0
-341 120 0
-342 241 0
-342 121 0
-343 242 0
-343 122 0
-344 243 0
-344 123 0
-345 244 0
-345 124 0
-346 245 0
-346 125 0
-347 246 0
-347 126 0
-348 247 0
-348 127 0
-349 248 0
-349 128 0
-350 249 0
-350 129 0
-351 250 0
-351 130 0
-352 251 0
-352 131 0
-354 264 0
-354 120 0
-356 265 0
-356 121 0
-358 266 0
-358 122 0
-360 267 0
-360 123 0
-362 268 0
-362 124 0
-364 269 0
-364 125 0
-366 270 0
-366 126 0
-368 271 0
-368 127 0
-370 272 0
-370 128 0
-372 273 0
-372 129 0
-374 274 0
-374 130 0
-376 275 0
-376 131 0
-120 -355 0
-121 -357 0
-122 -359 0
-123 -361 0
-124 -363 0
-125 -365 0
-126 -367 0
-127 -369 0
-128 -371 0
-129 -373 0
-130 -375 0
-131 -377 0
-10 -276 -390 0
-9 -19 -277 0
-18 -28 -278 0
-27 -37 -279 0
-36 -46 -280 0
-45 -55 -281 0
-54 -64 -282 0
-63 -73 -283 0
-72 -82 -284 0
-81 -91 -285 0
-90 -100 -286 0
-99 -287 -380 0
-10 -289 -384 0
-19 -132 -290 0
-28 -133 -291 0
-37 -134 -292 0
-46 -135 -293 0
-55 -136 -294 0
-64 -137 -295 0
-73 -138 -296 0
-82 -139 -297 0
-91 -140 -298 0
-100 -141 -299 0
-142 -300 -380 0
-10 -302 -385 0
-19 -156 -303 0
-28 -157 -304 0
-37 -158 -305 0
-46 -159 -306 0
-55 -160 -307 0
-64 -161 -308 0
-73 -162 -309 0
-82 -163 -310 0
-91 -164 -311 0
-100 -165 -312 0
-166 -313 -380 0
-10 -315 -386 0
-19 -180 -316 0
-28 -181 -317 0
-37 -182 -318 0
-46 -183 -319 0
-55 -184 -320 0
-64 -185 -321 0
-73 -186 -322 0
-82 -187 -323 0
-91 -188 -324 0
-100 -189 -325 0
-190 -326 -380 0
-10 -328 -387 0
-19 -204 -329 0
-28 -205 -330 0
-37 -206 -331 0
-46 -207 -332 0
-55 -208 -333 0
-64 -209 -334 0
-73 -210 -335 0
-82 -211 -336 0
-91 -212 -337 0
-100 -213 -338 0
-214 -339 -380 0
-10 -341 -388 0
-19 -228 -342 0
-28 -229 -343 0
-37 -230 -344 0
-46 -231 -345 0
-55 -232 -346 0
-64 -233 -347 0
-73 -234 -348 0
-82 -235 -349 0
-91 -236 -350 0
-100 -237 -351 0
-238 -352 -380 0
-10 -354 -389 0
-19 -252 -356 0
-28 -253 -358 0
-37 -254 -360 0
-46 -255 -362 0
-55 -256 -364 0
-64 -257 -366 0
-73 -258 -368 0
-82 -259 -370 0
-91 -260 -372 0
-100 -261 -374 0
-262 -376 -380 0
-9 390 0
-18 9 0
-27 18 0
-36 27 0
-45 36 0
-54 45 0
-63 54 0
-72 63 0
-81 72 0
-90 81 0
-99 90 0
-1 99 0
-390 9 0
-9 18 0
-18 27 0
-27 36 0
-36 45 0
-45 54 0
-54 63 0
-63 72 0
-72 81 0
-81 90 0
-90 99 0
-99 1 0
-10 399 0
-19 10 0
-28 19 0
-37 28 0
-46 37 0
-55 46 0
-64 55 0
-73 64 0
-82 73 0
-91 82 0
-100 91 0
-380 100 0
-2 289 0
-2 384 0
-289 -384 2 0
-3 302 0
-3 385 0
-302 -385 3 0
-4 315 0
-4 386 0
-315 -386 4 0
-5 328 0
-5 387 0
-328 -387 5 0
-6 341 0
-6 388 0
-341 -388 6 0
-7 354 0
-7 389 0
-354 -389 7 0
-8 276 0
-8 390 0
-276 -390 8 0
-399 2 3 4 5 6 7 8 10 0
-11 290 0
-11 132 0
-132 -290 11 0
-12 303 0
-12 156 0
-156 -303 12 0
-13 316 0
-13 180 0
-180 -316 13 0
-14 329 0
-14 204 0
-204 -329 14 0
-15 342 0
-15 228 0
-228 -342 15 0
-16 356 0
-16 252 0
-252 -356 16 0
-17 277 0
-17 9 0
-9 -277 17 0
-10 11 12 13 14 15 16 17 19 0
-20 291 0
-20 133 0
-133 -291 20 0
-21 304 0
-21 157 0
-157 -304 21 0
-22 317 0
-22 181 0
-181 -317 22 0
-23 330 0
-23 205 0
-205 -330 23 0
-24 343 0
-24 229 0
-229 -343 24 0
-25 358 0
-25 253 0
-253 -358 25 0
-26 278 0
-26 18 0
-18 -278 26 0
-19 20 21 22 23 24 25 26 28 0
-29 292 0
-29 134 0
-134 -292 29 0
-30 305 0
-30 158 0
-158 -305 30 0
-31 318 0
-31 182 0
-182 -318 31 0
-32 331 0
-32 206 0
-206 -331 32 0
-33 344 0
-33 230 0
-230 -344 33 0
-34 360 0
-34 254 0
-254 -360 34 0
-35 279 0
-35 27 0
-27 -279 35 0
-28 29 30 31 32 33 34 35 37 0
-38 293 0
-38 135 0
-135 -293 38 0
-39 306 0
-39 159 0
-159 -306 39 0
-40 319 0
-40 183 0
-183 -319 40 0
-41 332 0
-41 207 0
-207 -332 41 0
-42 345 0
-42 231 0
-231 -345 42 0
-43 362 0
-43 255 0
-255 -362 43 0
-44 280 0
-44 36 0
-36 -280 44 0
-37 38 39 40 41 42 43 44 46 0
-47 294 0
-47 136 0
-136 -294 47 0
-48 307 0
-48 160 0
-160 -307 48 0
-49 320 0
-49 184 0
-184 -320 49 0
-50 333 0
-50 208 0
-208 -333 50 0
-51 346 0
-51 232 0
-232 -346 51 0
-52 364 0
-52 256 0
-256 -364 52 0
-53 281 0
-53 45 0
-45 -281 53 0
-46 47 48 49 50 51 52 53 55 0
-56 295 0
-56 137 0
-137 -295 56 0
-57 308 0
-57 161 0
-161 -308 57 0
-58 321 0
-58 185 0
-185 -321 58 0
-59 334 0
-59 209 0
-209 -334 59 0
-60 347 0
-60 233 0
-233 -347 60 0
-61 366 0
-61 257 0
-257 -366 61 0
-62 282 0
-62 54 0
-54 -282 62 0
-55 56 57 58 59 60 61 62 64 0
-65 296 0
-65 138 0
-138 -296 65 0
-66 309 0
-66 162 0
-162 -309 66 0
-67 322 0
-67 186 0
-186 -322 67 0
-68 335 0
-68 210 0
-210 -335 68 0
-69 348 0
-69 234 0
-234 -348 69 0
-70 368 0
-70 258 0
-258 -368 70 0
-71 283 0
-71 63 0
-63 -283 71 0
-64 65 66 67 68 69 70 71 73 0
-74 297 0
-74 139 0
-139 -297 74 0
-75 310 0
-75 163 0
-163 -310 75 0
-76 323 0
-76 187 0
-187 -323 76 0
-77 336 0
-77 211 0
-211 -336 77 0
-78 349 0
-78 235 0
-235 -349 78 0
-79 370 0
-79 259 0
-259 -370 79 0
-80 284 0
-80 72 0
-72 -284 80 0
-73 74 75 76 77 78 79 80 82 0
-83 298 0
-83 140 0
-140 -298 83 0
-84 311 0
-84 164 0
-164 -311 84 0
-85 324 0
-85 188 0
-188 -324 85 0
-86 337 0
-86 212 0
-212 -337 86 0
-87 350 0
-87 236 0
-236 -350 87 0
-88 372 0
-88 260 0
-260 -372 88 0
-89 285 0
-89 81 0
-81 -285 89 0
-82 83 84 85 86 87 88 89 91 0
-92 299 0
-92 141 0
-141 -299 92 0
-93 312 0
-93 165 0
-165 -312 93 0
-94 325 0
-94 189 0
-189 -325 94 0
-95 338 0
-95 213 0
-213 -338 95 0
-96 351 0
-96 237 0
-237 -351 96 0
-97 374 0
-97 261 0
-261 -374 97 0
-98 286 0
-98 90 0
-90 -286 98 0
-91 92 93 94 95 96 97 98 100 0
-101 300 0
-101 142 0
-142 -300 101 0
-102 313 0
-102 166 0
-166 -313 102 0
-103 326 0
-103 190 0
-190 -326 103 0
-104 339 0
-104 214 0
-214 -339 104 0
-105 352 0
-105 238 0
-238 -352 105 0
-106 376 0
-106 262 0
-262 -376 106 0
-107 287 0
-107 99 0
-99 -287 107 0
-100 101 102 103 104 105 106 107 380 0
-108 276 392 0
-109 108 277 0
-110 109 278 0
-111 110 279 0
-112 111 280 0
-113 112 281 0
-114 113 282 0
-115 114 283 0
-116 115 284 0
-117 116 285 0
-118 117 286 0
-119 118 287 0
-392 108 0
-108 109 0
-109 110 0
-110 111 0
-111 112 0
-112 113 0
-113 114 0
-114 115 0
-115 116 0
-116 117 0
-117 118 0
-118 119 0
-120 276 289 302 315 328 341 354 391 0
-121 120 277 290 303 316 329 342 356 0
-122 121 278 291 304 317 330 343 358 0
-123 122 279 292 305 318 331 344 360 0
-124 123 280 293 306 319 332 345 362 0
-125 124 281 294 307 320 333 346 364 0
-126 125 282 295 308 321 334 347 366 0
-127 126 283 296 309 322 335 348 368 0
-128 127 284 297 310 323 336 349 370 0
-129 128 285 298 311 324 337 350 372 0
-130 129 286 299 312 325 338 351 374 0
-131 130 287 300 313 326 339 352 376 0
-391 120 355 0
-120 121 357 0
-121 122 359 0
-122 123 361 0
-123 124 363 0
-124 125 365 0
-125 126 367 0
-126 127 369 0
-127 128 371 0
-128 129 373 0
-129 130 375 0
-130 131 377 0
-132 384 0
-133 132 0
-134 133 0
-135 134 0
-136 135 0
-137 136 0
-138 137 0
-139 138 0
-140 139 0
-141 140 0
-142 141 0
-143 142 0
-384 132 0
-132 133 0
-133 134 0
-134 135 0
-135 136 0
-136 137 0
-137 138 0
-138 139 0
-139 140 0
-140 141 0
-141 142 0
-142 143 0
-144 289 393 0
-145 144 290 0
-146 145 291 0
-147 146 292 0
-148 147 293 0
-149 148 294 0
-150 149 295 0
-151 150 296 0
-152 151 297 0
-153 152 298 0
-154 153 299 0
-155 154 300 0
-393 144 0
-144 145 0
-145 146 0
-146 147 0
-147 148 0
-148 149 0
-149 150 0
-150 151 0
-151 152 0
-152 153 0
-153 154 0
-154 155 0
-156 385 0
-157 156 0
-158 157 0
-159 158 0
-160 159 0
-161 160 0
-162 161 0
-163 162 0
-164 163 0
-165 164 0
-166 165 0
-167 166 0
-385 156 0
-156 157 0
-157 158 0
-158 159 0
-159 160 0
-160 161 0
-161 162 0
-162 163 0
-163 164 0
-164 165 0
-165 166 0
-166 167 0
-168 302 394 0
-169 168 303 0
-170 169 304 0
-171 170 305 0
-172 171 306 0
-173 172 307 0
-174 173 308 0
-175 174 309 0
-176 175 310 0
-177 176 311 0
-178 177 312 0
-179 178 313 0
-394 168 0
-168 169 0
-169 170 0
-170 171 0
-171 172 0
-172 173 0
-173 174 0
-174 175 0
-175 176 0
-176 177 0
-177 178 0
-178 179 0
-180 386 0
-181 180 0
-182 181 0
-183 182 0
-184 183 0
-185 184 0
-186 185 0
-187 186 0
-188 187 0
-189 188 0
-190 189 0
-191 190 0
-386 180 0
-180 181 0
-181 182 0
-182 183 0
-183 184 0
-184 185 0
-185 186 0
-186 187 0
-187 188 0
-188 189 0
-189 190 0
-190 191 0
-192 315 395 0
-193 192 316 0
-194 193 317 0
-195 194 318 0
-196 195 319 0
-197 196 320 0
-198 197 321 0
-199 198 322 0
-200 199 323 0
-201 200 324 0
-202 201 325 0
-203 202 326 0
-395 192 0
-192 193 0
-193 194 0
-194 195 0
-195 196 0
-196 197 0
-197 198 0
-198 199 0
-199 200 0
-200 201 0
-201 202 0
-202 203 0
-204 387 0
-205 204 0
-206 205 0
-207 206 0
-208 207 0
-209 208 0
-210 209 0
-211 210 0
-212 211 0
-213 212 0
-214 213 0
-215 214 0
-387 204 0
-204 205 0
-205 206 0
-206 207 0
-207 208 0
-208 209 0
-209 210 0
-210 211 0
-211 212 0
-212 213 0
-213 214 0
-214 215 0
-216 328 396 0
-217 216 329 0
-218 217 330 0
-219 218 331 0
-220 219 332 0
-221 220 333 0
-222 221 334 0
-223 222 335 0
-224 223 336 0
-225 224 337 0
-226 225 338 0
-227 226 339 0
-396 216 0
-216 217 0
-217 218 0
-218 219 0
-219 220 0
-220 221 0
-221 222 0
-222 223 0
-223 224 0
-224 225 0
-225 226 0
-226 227 0
-228 388 0
-229 228 0
-230 229 0
-231 230 0
-232 231 0
-233 232 0
-234 233 0
-235 234 0
-236 235 0
-237 236 0
-238 237 0
-239 238 0
-388 228 0
-228 229 0
-229 230 0
-230 231 0
-231 232 0
-232 233 0
-233 234 0
-234 235 0
-235 236 0
-236 237 0
-237 238 0
-238 239 0
-240 341 397 0
-241 240 342 0
-242 241 343 0
-243 242 344 0
-244 243 345 0
-245 244 346 0
-246 245 347 0
-247 246 348 0
-248 247 349 0
-249 248 350 0
-250 249 351 0
-251 250 352 0
-397 240 0
-240 241 0
-241 242 0
-242 243 0
-243 244 0
-244 245 0
-245 246 0
-246 247 0
-247 248 0
-248 249 0
-249 250 0
-250 251 0
-252 389 0
-253 252 0
-254 253 0
-255 254 0
-256 255 0
-257 256 0
-258 257 0
-259 258 0
-260 259 0
-261 260 0
-262 261 0
-263 262 0
-389 252 0
-252 253 0
-253 254 0
-254 255 0
-255 256 0
-256 257 0
-257 258 0
-258 259 0
-259 260 0
-260 261 0
-261 262 0
-262 263 0
-264 354 398 0
-265 264 356 0
-266 265 358 0
-267 266 360 0
-268 267 362 0
-269 268 364 0
-270 269 366 0
-271 270 368 0
-272 271 370 0
-273 272 372 0
-274 273 374 0
-275 274 376 0
-398 264 0
-264 265 0
-265 266 0
-266 267 0
-267 268 0
-268 269 0
-269 270 0
-270 271 0
-271 272 0
-272 273 0
-273 274 0
-274 275 0
-276 -289 0
-277 -290 0
-278 -291 0
-279 -292 0
-280 -293 0
-281 -294 0
-282 -295 0
-283 -296 0
-284 -297 0
-285 -298 0
-286 -299 0
-287 -300 0
-288 -301 0
-276 -302 0
-277 -303 0
-278 -304 0
-279 -305 0
-280 -306 0
-281 -307 0
-282 -308 0
-283 -309 0
-284 -310 0
-285 -311 0
-286 -312 0
-287 -313 0
-288 -314 0
-276 -315 0
-277 -316 0
-278 -317 0
-279 -318 0
-280 -319 0
-281 -320 0
-282 -321 0
-283 -322 0
-284 -323 0
-285 -324 0
-286 -325 0
-287 -326 0
-288 -327 0
-276 -328 0
-277 -329 0
-278 -330 0
-279 -331 0
-280 -332 0
-281 -333 0
-282 -334 0
-283 -335 0
-284 -336 0
-285 -337 0
-286 -338 0
-287 -339 0
-288 -340 0
-276 -341 0
-277 -342 0
-278 -343 0
-279 -344 0
-280 -345 0
-281 -346 0
-282 -347 0
-283 -348 0
-284 -349 0
-285 -350 0
-286 -351 0
-287 -352 0
-288 -353 0
-276 -354 0
-277 -356 0
-278 -358 0
-279 -360 0
-280 -362 0
-281 -364 0
-282 -366 0
-283 -368 0
-284 -370 0
-285 -372 0
-286 -374 0
-287 -376 0
-288 -378 0
-276 -355 0
-277 -357 0
-278 -359 0
-279 -361 0
-280 -363 0
-281 -365 0
-282 -367 0
-283 -369 0
-284 -371 0
-285 -373 0
-286 -375 0
-287 -377 0
-288 -379 0
-289 -302 0
-290 -303 0
-291 -304 0
-292 -305 0
-293 -306 0
-294 -307 0
-295 -308 0
-296 -309 0
-297 -310 0
-298 -311 0
-299 -312 0
-300 -313 0
-301 -314 0
-289 -315 0
-290 -316 0
-291 -317 0
-292 -318 0
-293 -319 0
-294 -320 0
-295 -321 0
-296 -322 0
-297 -323 0
-298 -324 0
-299 -325 0
-300 -326 0
-301 -327 0
-289 -328 0
-290 -329 0
-291 -330 0
-292 -331 0
-293 -332 0
-294 -333 0
-295 -334 0
-296 -335 0
-297 -336 0
-298 -337 0
-299 -338 0
-300 -339 0
-301 -340 0
-289 -341 0
-290 -342 0
-291 -343 0
-292 -344 0
-293 -345 0
-294 -346 0
-295 -347 0
-296 -348 0
-297 -349 0
-298 -350 0
-299 -351 0
-300 -352 0
-301 -353 0
-289 -354 0
-290 -356 0
-291 -358 0
-292 -360 0
-293 -362 0
-294 -364 0
-295 -366 0
-296 -368 0
-297 -370 0
-298 -372 0
-299 -374 0
-300 -376 0
-301 -378 0
-289 -355 0
-290 -357 0
-291 -359 0
-292 -361 0
-293 -363 0
-294 -365 0
-295 -367 0
-296 -369 0
-297 -371 0
-298 -373 0
-299 -375 0
-300 -377 0
-301 -379 0
-302 -315 0
-303 -316 0
-304 -317 0
-305 -318 0
-306 -319 0
-307 -320 0
-308 -321 0
-309 -322 0
-310 -323 0
-311 -324 0
-312 -325 0
-313 -326 0
-314 -327 0
-302 -328 0
-303 -329 0
-304 -330 0
-305 -331 0
-306 -332 0
-307 -333 0
-308 -334 0
-309 -335 0
-310 -336 0
-311 -337 0
-312 -338 0
-313 -339 0
-314 -340 0
-302 -341 0
-303 -342 0
-304 -343 0
-305 -344 0
-306 -345 0
-307 -346 0
-308 -347 0
-309 -348 0
-310 -349 0
-311 -350 0
-312 -351 0
-313 -352 0
-314 -353 0
-302 -354 0
-303 -356 0
-304 -358 0
-305 -360 0
-306 -362 0
-307 -364 0
-308 -366 0
-309 -368 0
-310 -370 0
-311 -372 0
-312 -374 0
-313 -376 0
-314 -378 0
-302 -355 0
-303 -357 0
-304 -359 0
-305 -361 0
-306 -363 0
-307 -365 0
-308 -367 0
-309 -369 0
-310 -371 0
-311 -373 0
-312 -375 0
-313 -377 0
-314 -379 0
-315 -328 0
-316 -329 0
-317 -330 0
-318 -331 0
-319 -332 0
-320 -333 0
-321 -334 0
-322 -335 0
-323 -336 0
-324 -337 0
-325 -338 0
-326 -339 0
-327 -340 0
-315 -341 0
-316 -342 0
-317 -343 0
-318 -344 0
-319 -345 0
-320 -346 0
-321 -347 0
-322 -348 0
-323 -349 0
-324 -350 0
-325 -351 0
-326 -352 0
-327 -353 0
-315 -354 0
-316 -356 0
-317 -358 0
-318 -360 0
-319 -362 0
-320 -364 0
-321 -366 0
-322 -368 0
-323 -370 0
-324 -372 0
-325 -374 0
-326 -376 0
-327 -378 0
-315 -355 0
-316 -357 0
-317 -359 0
-318 -361 0
-319 -363 0
-320 -365 0
-321 -367 0
-322 -369 0
-323 -371 0
-324 -373 0
-325 -375 0
-326 -377 0
-327 -379 0
-328 -341 0
-329 -342 0
-330 -343 0
-331 -344 0
-332 -345 0
-333 -346 0
-334 -347 0
-335 -348 0
-336 -349 0
-337 -350 0
-338 -351 0
-339 -352 0
-340 -353 0
-328 -354 0
-329 -356 0
-330 -358 0
-331 -360 0
-332 -362 0
-333 -364 0
-334 -366 0
-335 -368 0
-336 -370 0
-337 -372 0
-338 -374 0
-339 -376 0
-340 -378 0
-328 -355 0
-329 -357 0
-330 -359 0
-331 -361 0
-332 -363 0
-333 -365 0
-334 -367 0
-335 -369 0
-336 -371 0
-337 -373 0
-338 -375 0
-339 -377 0
-340 -379 0
-341 -354 0
-342 -356 0
-343 -358 0
-344 -360 0
-345 -362 0
-346 -364 0
-347 -366 0
-348 -368 0
-349 -370 0
-350 -372 0
-351 -374 0
-352 -376 0
-353 -378 0
-341 -355 0
-342 -357 0
-343 -359 0
-344 -361 0
-345 -363 0
-346 -365 0
-347 -367 0
-348 -369 0
-349 -371 0
-350 -373 0
-351 -375 0
-352 -377 0
-353 -379 0
-354 -355 0
-356 -357 0
-358 -359 0
-360 -361 0
-362 -363 0
-364 -365 0
-366 -367 0
-368 -369 0
-370 -371 0
-372 -373 0
-374 -375 0
-376 -377 0
-378 -379 0
-380 0
